(declare-const in0 Int)
(declare-const in2 Int)
(declare-const in1 Int)
(declare-const in4 Int)
(declare-const in3 Int)
(declare-const in6 Int)
(declare-const in5 Int)
(declare-const in20 Int)
(declare-const in8 Int)
(declare-const in7 Int)
(declare-const in22 Int)
(declare-const in11 Int)
(declare-const in21 Int)
(declare-const in10 Int)
(declare-const in9 Int)
(declare-const in13 Int)
(declare-const in23 Int)
(declare-const in12 Int)
(declare-const in15 Int)
(declare-const in14 Int)
(declare-const in17 Int)
(declare-const in16 Int)
(declare-const in19 Int)
(declare-const in18 Int)

(assert (and (and (and (and (and (and (and (and (and (and (and (and (and (and (and (and (and (and (and (and (and (and (and  ( <  in0 0)  ( <  in1 0))  ( <  in2 0))  ( <  in3 0))  ( <  in4 0))  ( <  in5 0))  ( <  in6 0))  ( <  in7 0))  ( <  in8 0))  ( <  in9 0))  ( <  in10 0))  ( <  in11 0))  ( <  in12 0))  ( <  in13 0))  ( <  in14 0))  ( <  in15 0))  ( <  in16 0))  ( <  in17 0))  ( <  in18 0))  ( <  in19 0))  ( <  in20 0))  ( <  in21 0))  ( <  in22 0))  ( <  in23 0)))

(check-sat)
(get-model)